p cnf 50 50
-12 -13 15 0
-23 -19 -9 0
43 -9 -20 0
-33 29 -47 0
4 1 -21 0
-15 -5 -45 0
49 10 9 0
23 44 -37 0
22 -44 -24 0
-3 8 41 0
49 -5 -28 0
-41 27 -16 0
-47 -49 -41 0
-18 1 39 0
18 33 16 0
45 -36 -38 0
-14 23 -10 0
-41 -2 8 0
35 -4 -6 0
11 -48 36 0
-23 47 -24 0
46 9 -50 0
-37 -23 28 0
7 34 9 0
-5 19 44 0
-43 -40 -5 0
-25 11 -19 0
41 47 -36 0
49 -32 -46 0
22 44 -7 0
37 -33 46 0
37 17 16 0
19 -41 33 0
-46 -19 23 0
35 -5 9 0
11 -34 -41 0
47 -45 3 0
-38 22 -17 0
-13 32 -44 0
-10 45 -38 0
-21 25 29 0
49 14 33 0
-7 33 -40 0
-35 1 -34 0
-35 -17 -18 0
-48 9 -18 0
34 26 12 0
-40 -2 15 0
2 4 -34 0
39 -8 7 0
